p cnf 110 385
3 -1 0
3 -2 0
1 2 -3 0
-5 -1 0
-5 4 0
1 -4 5 0
9 -7 0
9 8 0
7 -8 -9 0
10 -6 0
10 9 0
6 -9 -10 0
11 5 0
11 -10 0
-5 10 -11 0
-12 3 0
-12 11 0
-3 -11 12 0
14 -13 0
14 -4 0
13 4 -14 0
-16 15 0
-16 -7 0
-15 7 16 0
-16 -3 -17 0
16 3 -17 0
-16 3 17 0
16 -3 17 0
-18 1 0
-18 17 0
-1 -17 18 0
14 18 -19 0
-14 -18 -19 0
14 -18 19 0
-14 18 19 0
-21 -20 0
-21 -2 0
20 2 21 0
-21 -22 -23 0
21 22 -23 0
-21 22 23 0
21 -22 23 0
-24 23 0
-24 -2 0
-23 2 24 0
24 -14 -25 0
-24 14 -25 0
24 14 25 0
-24 -14 25 0
-19 25 -26 0
19 -25 -26 0
-19 -25 26 0
19 25 26 0
27 -12 0
27 -26 0
12 26 -27 0
-28 -22 0
-28 17 0
22 -17 28 0
31 -29 0
31 -30 0
29 30 -31 0
-33 -31 0
-33 32 0
31 -32 33 0
34 -5 0
34 33 0
5 -33 -34 0
35 7 0
35 -15 0
-7 15 -35 0
-34 35 -36 0
34 -35 -36 0
-34 -35 36 0
34 35 36 0
-28 36 -37 0
28 -36 -37 0
-28 -36 37 0
28 36 37 0
38 -13 0
38 31 0
13 -31 -38 0
4 -8 -39 0
-4 8 -39 0
4 8 39 0
-4 -8 39 0
39 -2 -40 0
-39 2 -40 0
39 2 40 0
-39 -2 40 0
41 -38 0
41 -40 0
38 40 -41 0
-42 37 0
-42 -41 0
-37 41 42 0
-43 1 0
-43 -20 0
-1 20 43 0
-42 43 -44 0
42 -43 -44 0
-42 -43 44 0
42 43 44 0
-45 -30 0
-45 33 0
30 -33 45 0
-46 -45 0
-46 -23 0
45 23 46 0
47 46 0
47 45 0
-46 -45 -47 0
-44 47 -48 0
44 -47 -48 0
-44 -47 48 0
44 47 48 0
-49 -27 0
-49 -48 0
27 48 49 0
-50 -3 0
-50 -32 0
3 32 50 0
-51 50 0
-51 3 0
-50 -3 51 0
-52 38 0
-52 51 0
-38 -51 52 0
53 -15 0
53 21 0
15 -21 -53 0
54 -34 0
54 18 0
34 -18 -54 0
53 -54 -55 0
-53 54 -55 0
53 54 55 0
-53 -54 55 0
50 1 -56 0
-50 -1 -56 0
50 -1 56 0
-50 1 56 0
-57 55 0
-57 -56 0
-55 56 57 0
-52 -57 -58 0
52 57 -58 0
-52 57 58 0
52 -57 58 0
-59 -15 0
-59 18 0
15 -18 59 0
60 -15 0
60 29 0
15 -29 -60 0
61 59 0
61 -60 0
-59 60 -61 0
62 -29 0
62 61 0
29 -61 -62 0
-63 38 0
-63 -60 0
-38 60 63 0
-64 62 0
-64 -63 0
-62 63 64 0
66 -65 0
66 -14 0
65 14 -66 0
33 -35 -67 0
-33 35 -67 0
33 35 67 0
-33 -35 67 0
-14 67 -68 0
14 -67 -68 0
-14 -67 68 0
14 67 68 0
-69 -13 0
-69 39 0
13 -39 69 0
-69 22 -70 0
69 -22 -70 0
-69 -22 70 0
69 22 70 0
71 -68 0
71 -70 0
68 70 -71 0
-72 66 0
-72 71 0
-66 -71 72 0
64 -72 -73 0
-64 72 -73 0
64 72 73 0
-64 -72 73 0
-38 39 -74 0
38 -39 -74 0
-38 -39 74 0
38 39 74 0
-51 -18 -75 0
51 18 -75 0
-51 18 75 0
51 -18 75 0
-76 2 0
-76 -24 0
-2 24 76 0
-77 6 0
-77 76 0
-6 -76 77 0
78 75 0
78 -77 0
-75 77 -78 0
79 74 0
79 78 0
-74 -78 -79 0
-73 79 -80 0
73 -79 -80 0
-73 -79 80 0
73 79 80 0
81 -35 0
81 46 0
35 -46 -81 0
82 -6 0
82 20 0
6 -20 -82 0
-17 82 -83 0
17 -82 -83 0
-17 -82 83 0
17 82 83 0
81 83 -84 0
-81 -83 -84 0
81 -83 84 0
-81 83 84 0
23 -51 -85 0
-23 51 -85 0
23 51 85 0
-23 -51 85 0
86 -2 0
86 -85 0
2 85 -86 0
-87 -84 0
-87 -86 0
84 86 87 0
-88 80 0
-88 -87 0
-80 87 88 0
89 -58 0
89 88 0
58 -88 -89 0
90 49 0
90 89 0
-49 -89 -90 0
-91 8 0
-91 -29 0
-8 29 91 0
91 16 -92 0
-91 -16 -92 0
91 -16 92 0
-91 16 92 0
-93 18 0
-93 32 0
-18 -32 93 0
5 93 -94 0
-5 -93 -94 0
5 -93 94 0
-5 93 94 0
-95 -94 0
-95 -67 0
94 67 95 0
96 -32 0
96 33 0
32 -33 -96 0
97 24 0
97 -17 0
-24 17 -97 0
-98 -96 0
-98 -97 0
96 97 98 0
-95 -98 -99 0
95 98 -99 0
-95 98 99 0
95 -98 99 0
-40 -2 -100 0
40 2 -100 0
-40 2 100 0
40 -2 100 0
99 -100 -101 0
-99 100 -101 0
99 100 101 0
-99 -100 101 0
102 92 0
102 -101 0
-92 101 -102 0
103 -90 0
103 102 0
90 -102 -103 0
-14 32 -104 0
14 -32 -104 0
-14 -32 104 0
14 32 104 0
-105 104 0
-105 104 0
-104 105 0
-9 105 -106 0
9 -105 -106 0
-9 -105 106 0
9 105 106 0
-107 -10 0
-107 106 0
10 -106 107 0
108 21 0
108 106 0
-21 -106 -108 0
-109 -107 0
-109 108 0
107 -108 109 0
103 -109 -110 0
-103 109 -110 0
103 109 110 0
-103 -109 110 0
-3 -86 0
19 -26 0
-33 3 17 -14 0
82 -87 10 -49 -44 0
-7 -37 -108 67 0
-70 76 75 0
-78 5 0
94 11 -68 0
-102 96 -89 0
96 -24 68 66 -49 0
106 96 70 -28 0
-15 -85 37 -2 83 0
5 74 11 -84 -83 17 0
38 -64 0
-74 -28 -13 0
-86 92 -75 -83 0
-38 46 0
-17 -34 -28 -92 12 0
59 83 0
56 -104 47 18 12 0
54 -67 -49 -6 -41 -104 0
-78 33 -91 47 -72 67 0
-2 91 56 -24 -30 0
-102 -1 73 2 109 0
-50 107 -64 -10 0
19 -46 0
39 16 0
13 -2 -31 0
7 51 8 87 31 0
67 -6 70 77 -41 0
-30 105 16 107 -64 5 0
-44 -10 21 0
-44 -30 106 11 21 0
75 62 -51 -63 0
23 -107 109 -58 68 0
-28 -62 -6 54 -100 -29 0
58 106 0
-3 -22 8 0
-5 28 -105 -4 0
41 59 -46 -80 0
-25 -4 -108 67 0
-24 -55 52 -85 4 0
-5 -11 3 14 26 0
-102 -16 -30 -48 -28 -20 0
-76 73 11 -10 52 -74 0
98 76 94 -15 0
21 41 109 -56 0
-66 -67 62 -32 -101 0
61 53 -78 0
25 -27 1 86 71 -61 0
25 53 -87 -108 -22 0
48 -2 -13 0
68 -77 99 47 0
109 66 0
-84 -93 24 105 90 -104 0
41 50 24 91 -95 0
-22 58 60 29 82 79 0
59 56 -35 41 0
-18 -40 -101 -20 0
-13 -39 0
88 76 0
-69 -64 66 37 0
109 98 -78 0
8 -65 -32 -50 -103 48 0
110 0
